################### Instance Number: 10
Numero di nodi nella rete: 50
Numero di archi nella rete: 447
Numero di Ordini: 300
########################### CREATION OF THE ILP MODEL ############################
Start TIME to creation of the model: 2016-07-14 14:50:54.636000
FINISH TIME to creation of the model: 2016-07-14 14:51:39.204000
Impiegati 44.5680000782 secondi.
########################### WRITE THE LP MODEL ############################
############################ INIZIO A RISOLVERE IL PROBLEMA ##########################

Gurobi Optimizer version 6.5.1 build v6.5.1rc3 (win64)
Copyright (c) 2016, Gurobi Optimization, Inc.

Read LP format model from file C:\Users\Trappola\AppData\Local\Temp\8696-pulp.lp
Reading time = 1.63 seconds
(null): 15747 rows, 134100 columns, 536400 nonzeros
Optimize a model with 15747 rows, 134100 columns and 536400 nonzeros
Coefficient statistics:
  Matrix range    [1e+00, 1e+01]
  Objective range [1e+01, 3e+03]
  Bounds range    [1e+00, 1e+00]
  RHS range       [1e+00, 2e+02]
Found heuristic solution: objective 3.35165e+06
Presolve time: 1.75s
Presolved: 15747 rows, 134100 columns, 508800 nonzeros
Variable types: 0 continuous, 134100 integer (134100 binary)

Root relaxation: objective 5.382763e+05, 3780 iterations, 0.25 seconds

    Nodes    |    Current Node    |     Objective Bounds      |     Work
 Expl Unexpl |  Obj  Depth IntInf | Incumbent    BestBd   Gap | It/Node Time

     0     0 538276.326    0  171 3351650.64 538276.326  83.9%     -    2s
H    0     0                    549775.73650 538276.326  2.09%     -    2s
H    0     0                    549580.90660 538276.326  2.06%     -    3s
H    0     0                    543182.77910 538276.326  0.90%     -    4s
H    0     0                    543133.31670 538276.326  0.89%     -    5s
     0     0 540794.837    0  197 543133.317 540794.837  0.43%     -    8s
     0     0 541420.609    0  229 543133.317 541420.609  0.32%     -    9s
     0     0 541974.506    0  306 543133.317 541974.506  0.21%     -   12s
     0     0 541974.506    0  159 543133.317 541974.506  0.21%     -   17s
     0     0 541974.506    0  187 543133.317 541974.506  0.21%     -   19s
     0     0 541974.506    0  281 543133.317 541974.506  0.21%     -   21s
     0     0 542254.738    0  327 543133.317 542254.738  0.16%     -   23s
     0     0 542254.738    0  130 543133.317 542254.738  0.16%     -   25s
     0     0 542254.738    0  184 543133.317 542254.738  0.16%     -   27s
     0     0 542254.738    0  260 543133.317 542254.738  0.16%     -   28s
     0     0 542559.651    0  195 543133.317 542559.651  0.11%     -   29s
     0     0 542636.123    0  245 543133.317 542636.123  0.09%     -   29s
     0     0 542788.469    0  297 543133.317 542788.469  0.06%     -   30s
     0     0 542788.469    0   52 543133.317 542788.469  0.06%     -   32s
     0     0 542788.469    0   96 543133.317 542788.469  0.06%     -   32s
     0     0 542788.469    0  133 543133.317 542788.469  0.06%     -   32s
     0     0 542788.469    0  151 543133.317 542788.469  0.06%     -   32s
     0     0 542788.469    0  184 543133.317 542788.469  0.06%     -   32s
     0     0 542836.326    0  140 543133.317 542836.326  0.05%     -   32s
     0     0 542836.326    0   49 543133.317 542836.326  0.05%     -   33s
     0     0 542836.326    0   83 543133.317 542836.326  0.05%     -   33s
     0     0 542836.326    0  102 543133.317 542836.326  0.05%     -   33s
     0     0 542836.326    0  125 543133.317 542836.326  0.05%     -   33s
     0     0 542836.326    0  120 543133.317 542836.326  0.05%     -   33s
     0     0 542901.217    0  161 543133.317 542901.217  0.04%     -   33s
     0     0 542999.404    0  118 543133.317 542999.404  0.02%     -   33s
     0     0 543038.384    0  121 543133.317 543038.384  0.02%     -   33s
     0     0 543038.384    0   38 543133.317 543038.384  0.02%     -   33s
     0     0 543038.384    0   49 543133.317 543038.384  0.02%     -   33s
     0     0 543038.384    0   67 543133.317 543038.384  0.02%     -   33s
     0     0 543038.384    0   90 543133.317 543038.384  0.02%     -   33s
     0     0 543038.384    0   67 543133.317 543038.384  0.02%     -   33s
     0     0 543040.904    0   90 543133.317 543040.904  0.02%     -   33s
     0     0 543077.451    0   69 543133.317 543077.451  0.01%     -   33s
     0     0 543104.623    0   93 543133.317 543104.623  0.01%     -   33s

Cutting planes:
  Gomory: 4
  Cover: 64
  Clique: 2
  MIR: 36
  GUB cover: 9

Explored 0 nodes (17233 simplex iterations) in 33.94 seconds
Thread count was 8 (of 8 available processors)

Optimal solution found (tolerance 1.00e-04)
Best objective 5.431333167000e+05, best bound 5.431046226762e+05, gap 0.0053%

Wrote result file 'C:\Users\Trappola\AppData\Local\Temp\8696-pulp.sol'

('Status:', 'Optimal')
('Total Cost of Ingredients per can = ', 543133.3166999999)
